TimeLimit = 120;

NT = 83;

DTm = {<1 1 1673>
<1 2 985>
<1 3 1836>
<1 4 973>
<1 5 1700>
<1 6 2881>
<1 7 2231>
<1 8 1040>
<1 9 1793>
<1 10 1250>
<1 11 700>
<1 12 464>
<1 13 500>
<1 14 1133>
<1 15 577>
<1 16 483>
<1 17 880>
<1 18 667>
<1 19 600>
<1 20 233>
<1 21 408>
<1 22 847>
<1 23 767>
<1 24 850>
<1 25 780>
<1 26 912>
<1 27 748>
<1 28 1863>
<1 29 714>
<1 30 1004>
<1 31 713>
<1 32 642>
<1 33 629>
<1 34 1234>
<1 35 1143>
<1 36 1266>
<1 37 792>
<1 38 1251>
<1 39 1310>
<1 40 663>
<1 41 494>
<1 42 1288>
<1 43 792>
<1 44 578>
<1 45 594>
<1 46 578>
<1 47 622>
<1 48 578>
<1 49 564>
<1 50 578>
<1 51 578>
<1 52 578>
<1 53 578>
<1 54 578>
<1 55 578>
<1 56 578>
<1 57 578>
<1 58 578>
<1 59 578>
<1 60 578>
<1 61 578>
<1 62 578>
<1 63 578>
<1 64 578>
<1 65 578>
<1 66 578>
<1 67 578>
<1 68 578>
<1 69 467>
<1 70 887>
<1 71 396>
<1 72 1296>
<1 73 1100>
<1 74 2543>
<1 75 764>
<1 76 357>
<1 77 701>
<1 78 1164>
<1 79 286>
<1 80 2100>
<1 81 450>
<1 82 1300>
<1 83 3691>
};

PREC = {<1, 2>
<2, 3>
<2, 4>
<2, 5>
<3, 6>
<4, 6>
<4, 7>
<5, 8>
<6, 9>
<6, 10>
<7, 11>
<8, 77>
<8, 78>
<9, 12>
<10, 13>
<10, 14>
<10, 25>
<11, 15>
<12, 16>
<13, 17>
<13, 18>
<13, 20>
<14, 19>
<15, 20>
<15, 39>
<16, 77>
<16, 78>
<17, 21>
<17, 22>
<17, 28>
<18, 23>
<19, 24>
<20, 26>
<21, 27>
<22, 27>
<23, 74>
<24, 28>
<24, 29>
<25, 32>
<26, 74>
<27, 69>
<28, 32>
<29, 30>
<30, 31>
<31, 39>
<32, 33>
<32, 34>
<32, 35>
<32, 36>
<33, 37>
<34, 77>
<34, 78>
<35, 77>
<35, 78>
<36, 38>
<36, 39>
<37, 40>
<38, 41>
<39, 42>
<39, 43>
<39, 44>
<39, 75>
<40, 77>
<40, 78>
<41, 45>
<42, 77>
<42, 78>
<43, 77>
<43, 78>
<44, 46>
<45, 47>
<46, 48>
<47, 49>
<48, 50>
<49, 69>
<50, 51>
<51, 52>
<52, 53>
<53, 54>
<54, 55>
<55, 56>
<56, 57>
<57, 58>
<58, 59>
<59, 60>
<60, 61>
<61, 62>
<62, 63>
<63, 64>
<64, 65>
<65, 66>
<66, 67>
<67, 68>
<68, 74>
<68, 75>
<69, 70>
<69, 71>
<70, 72>
<71, 73>
<72, 73>
<73, 74>
<73, 75>
<74, 76>
<75, 76>
<76, 77>
<76, 78>
<77, 79>
<78, 79>
<79, 80>
<79, 81>
<80, 82>
<81, 83>
<82, 83>
};



NW = 7;
NS = 7;
NM = 1;
OR = [1.0];
precision = 9.23616883716634E-05;
WSFIXe = {
<1 1>
<2 2>
<3 3>
<4 4>
<5 5>
<6 6>
<7 7>
};
WSFEASe = { };
TSFIXe = { };
FATSe = { };
MT = { };
TTIne = { };
TWIne = { };
